Route #1: 0 26 11 19 52 13 57 15 5 29 30 74 22 33 63 23 16 3 9 72 12 17 0
Route #2: 0 67 34 35 66 14 54 27 45 48 2 43 41 56 24 49 6 68 0
Route #3: 0 21 28 62 1 73 51 44 32 39 50 25 55 31 65 53 7 8 46 0
Route #4: 0 75 4 47 36 37 20 70 60 71 69 61 64 42 18 40 58 10 38 59 0
Cost 930:
